instances/shortest_path/discrete/nohadani_8_20.mps
* Signature: 0x229cff0c87747444
NAME nohadani_8_20
ROWS
 N  OBJ
 E  flow_cons_inner_nodes[0]
 E  flow_cons_inner_nodes[1]
 E  flow_cons_inner_nodes[2]
 E  flow_cons_inner_nodes[4]
 E  flow_cons_inner_nodes[5]
 E  flow_cons_inner_nodes[7]
 E  flow_cons_source
 E  flow_cons_target
 L  primal_lower
 L  mccormick1[0,1]
 L  mccormick1[0,2]
 L  mccormick1[0,3]
 L  mccormick1[0,4]
 L  mccormick1[0,5]
 L  mccormick1[0,7]
 L  mccormick1[1,0]
 L  mccormick1[1,2]
 L  mccormick1[1,4]
 L  mccormick1[1,5]
 L  mccormick1[1,6]
 L  mccormick1[1,7]
 L  mccormick1[2,0]
 L  mccormick1[2,1]
 L  mccormick1[2,3]
 L  mccormick1[2,4]
 L  mccormick1[2,5]
 L  mccormick1[2,6]
 L  mccormick1[2,7]
 L  mccormick1[3,0]
 L  mccormick1[3,2]
 L  mccormick1[3,4]
 L  mccormick1[3,5]
 L  mccormick1[3,7]
 L  mccormick1[4,0]
 L  mccormick1[4,1]
 L  mccormick1[4,2]
 L  mccormick1[4,3]
 L  mccormick1[4,5]
 L  mccormick1[4,6]
 L  mccormick1[5,0]
 L  mccormick1[5,1]
 L  mccormick1[5,2]
 L  mccormick1[5,3]
 L  mccormick1[5,4]
 L  mccormick1[5,6]
 L  mccormick1[5,7]
 L  mccormick1[6,1]
 L  mccormick1[6,2]
 L  mccormick1[6,4]
 L  mccormick1[6,5]
 L  mccormick1[7,0]
 L  mccormick1[7,1]
 L  mccormick1[7,2]
 L  mccormick1[7,3]
 L  mccormick1[7,5]
 L  mccormick2[0,1]
 L  mccormick2[0,2]
 L  mccormick2[0,3]
 L  mccormick2[0,4]
 L  mccormick2[0,5]
 L  mccormick2[0,7]
 L  mccormick2[1,0]
 L  mccormick2[1,2]
 L  mccormick2[1,4]
 L  mccormick2[1,5]
 L  mccormick2[1,6]
 L  mccormick2[1,7]
 L  mccormick2[2,0]
 L  mccormick2[2,1]
 L  mccormick2[2,3]
 L  mccormick2[2,4]
 L  mccormick2[2,5]
 L  mccormick2[2,6]
 L  mccormick2[2,7]
 L  mccormick2[3,0]
 L  mccormick2[3,2]
 L  mccormick2[3,4]
 L  mccormick2[3,5]
 L  mccormick2[3,7]
 L  mccormick2[4,0]
 L  mccormick2[4,1]
 L  mccormick2[4,2]
 L  mccormick2[4,3]
 L  mccormick2[4,5]
 L  mccormick2[4,6]
 L  mccormick2[5,0]
 L  mccormick2[5,1]
 L  mccormick2[5,2]
 L  mccormick2[5,3]
 L  mccormick2[5,4]
 L  mccormick2[5,6]
 L  mccormick2[5,7]
 L  mccormick2[6,1]
 L  mccormick2[6,2]
 L  mccormick2[6,4]
 L  mccormick2[6,5]
 L  mccormick2[7,0]
 L  mccormick2[7,1]
 L  mccormick2[7,2]
 L  mccormick2[7,3]
 L  mccormick2[7,5]
 G  mccormick3[0,1]
 G  mccormick3[0,2]
 G  mccormick3[0,3]
 G  mccormick3[0,4]
 G  mccormick3[0,5]
 G  mccormick3[0,7]
 G  mccormick3[1,0]
 G  mccormick3[1,2]
 G  mccormick3[1,4]
 G  mccormick3[1,5]
 G  mccormick3[1,6]
 G  mccormick3[1,7]
 G  mccormick3[2,0]
 G  mccormick3[2,1]
 G  mccormick3[2,3]
 G  mccormick3[2,4]
 G  mccormick3[2,5]
 G  mccormick3[2,6]
 G  mccormick3[2,7]
 G  mccormick3[3,0]
 G  mccormick3[3,2]
 G  mccormick3[3,4]
 G  mccormick3[3,5]
 G  mccormick3[3,7]
 G  mccormick3[4,0]
 G  mccormick3[4,1]
 G  mccormick3[4,2]
 G  mccormick3[4,3]
 G  mccormick3[4,5]
 G  mccormick3[4,6]
 G  mccormick3[5,0]
 G  mccormick3[5,1]
 G  mccormick3[5,2]
 G  mccormick3[5,3]
 G  mccormick3[5,4]
 G  mccormick3[5,6]
 G  mccormick3[5,7]
 G  mccormick3[6,1]
 G  mccormick3[6,2]
 G  mccormick3[6,4]
 G  mccormick3[6,5]
 G  mccormick3[7,0]
 G  mccormick3[7,1]
 G  mccormick3[7,2]
 G  mccormick3[7,3]
 G  mccormick3[7,5]
COLUMNS
    MARKER    'MARKER'                 'INTORG'
    y[0,1]    OBJ       65.49
    y[0,1]    flow_cons_inner_nodes[0]  -1
    y[0,1]    flow_cons_inner_nodes[1]  1
    y[0,1]    mccormick2[0,1]  -1
    y[0,1]    mccormick3[0,1]  -1
    y[0,2]    OBJ       22.02
    y[0,2]    flow_cons_inner_nodes[0]  -1
    y[0,2]    flow_cons_inner_nodes[2]  1
    y[0,2]    mccormick2[0,2]  -1
    y[0,2]    mccormick3[0,2]  -1
    y[0,3]    OBJ       25.94
    y[0,3]    flow_cons_inner_nodes[0]  -1
    y[0,3]    flow_cons_source  -1
    y[0,3]    mccormick2[0,3]  -1
    y[0,3]    mccormick3[0,3]  -1
    y[0,4]    OBJ       67.48
    y[0,4]    flow_cons_inner_nodes[0]  -1
    y[0,4]    flow_cons_inner_nodes[4]  1
    y[0,4]    mccormick2[0,4]  -1
    y[0,4]    mccormick3[0,4]  -1
    y[0,5]    OBJ       50.04
    y[0,5]    flow_cons_inner_nodes[0]  -1
    y[0,5]    flow_cons_inner_nodes[5]  1
    y[0,5]    mccormick2[0,5]  -1
    y[0,5]    mccormick3[0,5]  -1
    y[0,7]    OBJ       8.06
    y[0,7]    flow_cons_inner_nodes[0]  -1
    y[0,7]    flow_cons_inner_nodes[7]  1
    y[0,7]    mccormick2[0,7]  -1
    y[0,7]    mccormick3[0,7]  -1
    y[1,0]    OBJ       65.49
    y[1,0]    flow_cons_inner_nodes[0]  1
    y[1,0]    flow_cons_inner_nodes[1]  -1
    y[1,0]    mccormick2[1,0]  -1
    y[1,0]    mccormick3[1,0]  -1
    y[1,2]    OBJ       51.79
    y[1,2]    flow_cons_inner_nodes[1]  -1
    y[1,2]    flow_cons_inner_nodes[2]  1
    y[1,2]    mccormick2[1,2]  -1
    y[1,2]    mccormick3[1,2]  -1
    y[1,4]    OBJ       37.34
    y[1,4]    flow_cons_inner_nodes[1]  -1
    y[1,4]    flow_cons_inner_nodes[4]  1
    y[1,4]    mccormick2[1,4]  -1
    y[1,4]    mccormick3[1,4]  -1
    y[1,5]    OBJ       18.03
    y[1,5]    flow_cons_inner_nodes[1]  -1
    y[1,5]    flow_cons_inner_nodes[5]  1
    y[1,5]    mccormick2[1,5]  -1
    y[1,5]    mccormick3[1,5]  -1
    y[1,6]    OBJ       8.54
    y[1,6]    flow_cons_inner_nodes[1]  -1
    y[1,6]    flow_cons_target  1
    y[1,6]    mccormick2[1,6]  -1
    y[1,6]    mccormick3[1,6]  -1
    y[1,7]    OBJ       73.55
    y[1,7]    flow_cons_inner_nodes[1]  -1
    y[1,7]    flow_cons_inner_nodes[7]  1
    y[1,7]    mccormick2[1,7]  -1
    y[1,7]    mccormick3[1,7]  -1
    y[2,0]    OBJ       22.02
    y[2,0]    flow_cons_inner_nodes[0]  1
    y[2,0]    flow_cons_inner_nodes[2]  -1
    y[2,0]    mccormick2[2,0]  -1
    y[2,0]    mccormick3[2,0]  -1
    y[2,1]    OBJ       51.79
    y[2,1]    flow_cons_inner_nodes[1]  1
    y[2,1]    flow_cons_inner_nodes[2]  -1
    y[2,1]    mccormick2[2,1]  -1
    y[2,1]    mccormick3[2,1]  -1
    y[2,3]    OBJ       26.68
    y[2,3]    flow_cons_inner_nodes[2]  -1
    y[2,3]    flow_cons_source  -1
    y[2,3]    mccormick2[2,3]  -1
    y[2,3]    mccormick3[2,3]  -1
    y[2,4]    OBJ       46.04
    y[2,4]    flow_cons_inner_nodes[2]  -1
    y[2,4]    flow_cons_inner_nodes[4]  1
    y[2,4]    mccormick2[2,4]  -1
    y[2,4]    mccormick3[2,4]  -1
    y[2,5]    OBJ       40.71
    y[2,5]    flow_cons_inner_nodes[2]  -1
    y[2,5]    flow_cons_inner_nodes[5]  1
    y[2,5]    mccormick2[2,5]  -1
    y[2,5]    mccormick3[2,5]  -1
    y[2,6]    OBJ       59.3
    y[2,6]    flow_cons_inner_nodes[2]  -1
    y[2,6]    flow_cons_target  1
    y[2,6]    mccormick2[2,6]  -1
    y[2,6]    mccormick3[2,6]  -1
    y[2,7]    OBJ       28.43
    y[2,7]    flow_cons_inner_nodes[2]  -1
    y[2,7]    flow_cons_inner_nodes[7]  1
    y[2,7]    mccormick2[2,7]  -1
    y[2,7]    mccormick3[2,7]  -1
    y[3,0]    OBJ       25.94
    y[3,0]    flow_cons_inner_nodes[0]  1
    y[3,0]    flow_cons_source  1
    y[3,0]    mccormick2[3,0]  -1
    y[3,0]    mccormick3[3,0]  -1
    y[3,2]    OBJ       26.68
    y[3,2]    flow_cons_inner_nodes[2]  1
    y[3,2]    flow_cons_source  1
    y[3,2]    mccormick2[3,2]  -1
    y[3,2]    mccormick3[3,2]  -1
    y[3,4]    OBJ       67.05
    y[3,4]    flow_cons_inner_nodes[4]  1
    y[3,4]    flow_cons_source  1
    y[3,4]    mccormick2[3,4]  -1
    y[3,4]    mccormick3[3,4]  -1
    y[3,5]    OBJ       66.85
    y[3,5]    flow_cons_inner_nodes[5]  1
    y[3,5]    flow_cons_source  1
    y[3,5]    mccormick2[3,5]  -1
    y[3,5]    mccormick3[3,5]  -1
    y[3,7]    OBJ       24.33
    y[3,7]    flow_cons_inner_nodes[7]  1
    y[3,7]    flow_cons_source  1
    y[3,7]    mccormick2[3,7]  -1
    y[3,7]    mccormick3[3,7]  -1
    y[4,0]    OBJ       67.48
    y[4,0]    flow_cons_inner_nodes[0]  1
    y[4,0]    flow_cons_inner_nodes[4]  -1
    y[4,0]    mccormick2[4,0]  -1
    y[4,0]    mccormick3[4,0]  -1
    y[4,1]    OBJ       37.34
    y[4,1]    flow_cons_inner_nodes[1]  1
    y[4,1]    flow_cons_inner_nodes[4]  -1
    y[4,1]    mccormick2[4,1]  -1
    y[4,1]    mccormick3[4,1]  -1
    y[4,2]    OBJ       46.04
    y[4,2]    flow_cons_inner_nodes[2]  1
    y[4,2]    flow_cons_inner_nodes[4]  -1
    y[4,2]    mccormick2[4,2]  -1
    y[4,2]    mccormick3[4,2]  -1
    y[4,3]    OBJ       67.05
    y[4,3]    flow_cons_inner_nodes[4]  -1
    y[4,3]    flow_cons_source  -1
    y[4,3]    mccormick2[4,3]  -1
    y[4,3]    mccormick3[4,3]  -1
    y[4,5]    OBJ       45.04
    y[4,5]    flow_cons_inner_nodes[4]  -1
    y[4,5]    flow_cons_inner_nodes[5]  1
    y[4,5]    mccormick2[4,5]  -1
    y[4,5]    mccormick3[4,5]  -1
    y[4,6]    OBJ       38.28
    y[4,6]    flow_cons_inner_nodes[4]  -1
    y[4,6]    flow_cons_target  1
    y[4,6]    mccormick2[4,6]  -1
    y[4,6]    mccormick3[4,6]  -1
    y[5,0]    OBJ       50.04
    y[5,0]    flow_cons_inner_nodes[0]  1
    y[5,0]    flow_cons_inner_nodes[5]  -1
    y[5,0]    mccormick2[5,0]  -1
    y[5,0]    mccormick3[5,0]  -1
    y[5,1]    OBJ       18.03
    y[5,1]    flow_cons_inner_nodes[1]  1
    y[5,1]    flow_cons_inner_nodes[5]  -1
    y[5,1]    mccormick2[5,1]  -1
    y[5,1]    mccormick3[5,1]  -1
    y[5,2]    OBJ       40.71
    y[5,2]    flow_cons_inner_nodes[2]  1
    y[5,2]    flow_cons_inner_nodes[5]  -1
    y[5,2]    mccormick2[5,2]  -1
    y[5,2]    mccormick3[5,2]  -1
    y[5,3]    OBJ       66.85
    y[5,3]    flow_cons_inner_nodes[5]  -1
    y[5,3]    flow_cons_source  -1
    y[5,3]    mccormick2[5,3]  -1
    y[5,3]    mccormick3[5,3]  -1
    y[5,4]    OBJ       45.04
    y[5,4]    flow_cons_inner_nodes[4]  1
    y[5,4]    flow_cons_inner_nodes[5]  -1
    y[5,4]    mccormick2[5,4]  -1
    y[5,4]    mccormick3[5,4]  -1
    y[5,6]    OBJ       26.42
    y[5,6]    flow_cons_inner_nodes[5]  -1
    y[5,6]    flow_cons_target  1
    y[5,6]    mccormick2[5,6]  -1
    y[5,6]    mccormick3[5,6]  -1
    y[5,7]    OBJ       58.01
    y[5,7]    flow_cons_inner_nodes[5]  -1
    y[5,7]    flow_cons_inner_nodes[7]  1
    y[5,7]    mccormick2[5,7]  -1
    y[5,7]    mccormick3[5,7]  -1
    y[6,1]    OBJ       8.54
    y[6,1]    flow_cons_inner_nodes[1]  1
    y[6,1]    flow_cons_target  -1
    y[6,1]    mccormick2[6,1]  -1
    y[6,1]    mccormick3[6,1]  -1
    y[6,2]    OBJ       59.3
    y[6,2]    flow_cons_inner_nodes[2]  1
    y[6,2]    flow_cons_target  -1
    y[6,2]    mccormick2[6,2]  -1
    y[6,2]    mccormick3[6,2]  -1
    y[6,4]    OBJ       38.28
    y[6,4]    flow_cons_inner_nodes[4]  1
    y[6,4]    flow_cons_target  -1
    y[6,4]    mccormick2[6,4]  -1
    y[6,4]    mccormick3[6,4]  -1
    y[6,5]    OBJ       26.42
    y[6,5]    flow_cons_inner_nodes[5]  1
    y[6,5]    flow_cons_target  -1
    y[6,5]    mccormick2[6,5]  -1
    y[6,5]    mccormick3[6,5]  -1
    y[7,0]    OBJ       8.06
    y[7,0]    flow_cons_inner_nodes[0]  1
    y[7,0]    flow_cons_inner_nodes[7]  -1
    y[7,0]    mccormick2[7,0]  -1
    y[7,0]    mccormick3[7,0]  -1
    y[7,1]    OBJ       73.55
    y[7,1]    flow_cons_inner_nodes[1]  1
    y[7,1]    flow_cons_inner_nodes[7]  -1
    y[7,1]    mccormick2[7,1]  -1
    y[7,1]    mccormick3[7,1]  -1
    y[7,2]    OBJ       28.43
    y[7,2]    flow_cons_inner_nodes[2]  1
    y[7,2]    flow_cons_inner_nodes[7]  -1
    y[7,2]    mccormick2[7,2]  -1
    y[7,2]    mccormick3[7,2]  -1
    y[7,3]    OBJ       24.33
    y[7,3]    flow_cons_inner_nodes[7]  -1
    y[7,3]    flow_cons_source  -1
    y[7,3]    mccormick2[7,3]  -1
    y[7,3]    mccormick3[7,3]  -1
    y[7,5]    OBJ       58.01
    y[7,5]    flow_cons_inner_nodes[5]  1
    y[7,5]    flow_cons_inner_nodes[7]  -1
    y[7,5]    mccormick2[7,5]  -1
    y[7,5]    mccormick3[7,5]  -1
    x[0,1]    OBJ       1
    x[0,1]    primal_lower  0.15
    x[0,2]    OBJ       1
    x[0,2]    primal_lower  2.24
    x[0,3]    OBJ       1
    x[0,3]    primal_lower  3.88
    x[0,4]    OBJ       1
    x[0,4]    primal_lower  1.89
    x[0,5]    OBJ       1
    x[0,5]    primal_lower  2.9
    x[0,7]    OBJ       1
    x[0,7]    primal_lower  1.33
    x[1,0]    OBJ       1
    x[1,0]    primal_lower  2.49
    x[1,2]    OBJ       1
    x[1,2]    primal_lower  1.05
    x[1,4]    OBJ       1
    x[1,4]    primal_lower  1.1
    x[1,5]    OBJ       1
    x[1,5]    primal_lower  4.37
    x[1,6]    OBJ       1
    x[1,6]    primal_lower  2.96
    x[1,7]    OBJ       1
    x[1,7]    primal_lower  0.08
    x[2,0]    OBJ       1
    x[2,0]    primal_lower  4.57
    x[2,1]    OBJ       1
    x[2,1]    primal_lower  3.37
    x[2,3]    OBJ       1
    x[2,3]    primal_lower  3.31
    x[2,4]    OBJ       1
    x[2,4]    primal_lower  1.88
    x[2,5]    OBJ       1
    x[2,5]    primal_lower  0.93
    x[2,6]    OBJ       1
    x[2,6]    primal_lower  4.41
    x[2,7]    OBJ       1
    x[2,7]    primal_lower  1.03
    x[3,0]    OBJ       1
    x[3,0]    primal_lower  0.22
    x[3,2]    OBJ       1
    x[3,2]    primal_lower  4.05
    x[3,4]    OBJ       1
    x[3,4]    primal_lower  4.08
    x[3,5]    OBJ       1
    x[3,5]    primal_lower  4.42
    x[3,7]    OBJ       1
    x[3,7]    primal_lower  2.8
    x[4,0]    OBJ       1
    x[4,0]    primal_lower  4.52
    x[4,1]    OBJ       1
    x[4,1]    primal_lower  1.85
    x[4,2]    OBJ       1
    x[4,2]    primal_lower  0.72
    x[4,3]    OBJ       1
    x[4,3]    primal_lower  2.69
    x[4,5]    OBJ       1
    x[4,5]    primal_lower  1.76
    x[4,6]    OBJ       1
    x[4,6]    primal_lower  1.35
    x[5,0]    OBJ       1
    x[5,0]    primal_lower  0.08
    x[5,1]    OBJ       1
    x[5,1]    primal_lower  2.14
    x[5,2]    OBJ       1
    x[5,2]    primal_lower  4.17
    x[5,3]    OBJ       1
    x[5,3]    primal_lower  0.47
    x[5,4]    OBJ       1
    x[5,4]    primal_lower  1.97
    x[5,6]    OBJ       1
    x[5,6]    primal_lower  0.6
    x[5,7]    OBJ       1
    x[5,7]    primal_lower  0.51
    x[6,1]    OBJ       1
    x[6,1]    primal_lower  4.26
    x[6,2]    OBJ       1
    x[6,2]    primal_lower  2.84
    x[6,4]    OBJ       1
    x[6,4]    primal_lower  1.24
    x[6,5]    OBJ       1
    x[6,5]    primal_lower  3.37
    x[7,0]    OBJ       1
    x[7,0]    primal_lower  0.87
    x[7,1]    OBJ       1
    x[7,1]    primal_lower  1.3
    x[7,2]    OBJ       1
    x[7,2]    primal_lower  1.34
    x[7,3]    OBJ       1
    x[7,3]    primal_lower  2.37
    x[7,5]    OBJ       1
    x[7,5]    primal_lower  1.77
    u[0,1]    primal_lower  10
    u[0,1]    mccormick1[0,1]  -1
    u[0,1]    mccormick3[0,1]  -1
    u[0,2]    primal_lower  62
    u[0,2]    mccormick1[0,2]  -1
    u[0,2]    mccormick3[0,2]  -1
    u[0,3]    primal_lower  36
    u[0,3]    mccormick1[0,3]  -1
    u[0,3]    mccormick3[0,3]  -1
    u[0,4]    primal_lower  77
    u[0,4]    mccormick1[0,4]  -1
    u[0,4]    mccormick3[0,4]  -1
    u[0,5]    primal_lower  50
    u[0,5]    mccormick1[0,5]  -1
    u[0,5]    mccormick3[0,5]  -1
    u[0,7]    primal_lower  56
    u[0,7]    mccormick1[0,7]  -1
    u[0,7]    mccormick3[0,7]  -1
    u[1,0]    primal_lower  15
    u[1,0]    mccormick1[1,0]  -1
    u[1,0]    mccormick3[1,0]  -1
    u[1,2]    primal_lower  30
    u[1,2]    mccormick1[1,2]  -1
    u[1,2]    mccormick3[1,2]  -1
    u[1,4]    primal_lower  11
    u[1,4]    mccormick1[1,4]  -1
    u[1,4]    mccormick3[1,4]  -1
    u[1,5]    primal_lower  28
    u[1,5]    mccormick1[1,5]  -1
    u[1,5]    mccormick3[1,5]  -1
    u[1,6]    primal_lower  22
    u[1,6]    mccormick1[1,6]  -1
    u[1,6]    mccormick3[1,6]  -1
    u[1,7]    primal_lower  61
    u[1,7]    mccormick1[1,7]  -1
    u[1,7]    mccormick3[1,7]  -1
    u[2,0]    primal_lower  34
    u[2,0]    mccormick1[2,0]  -1
    u[2,0]    mccormick3[2,0]  -1
    u[2,1]    primal_lower  14
    u[2,1]    mccormick1[2,1]  -1
    u[2,1]    mccormick3[2,1]  -1
    u[2,3]    primal_lower  71
    u[2,3]    mccormick1[2,3]  -1
    u[2,3]    mccormick3[2,3]  -1
    u[2,4]    primal_lower  91
    u[2,4]    mccormick1[2,4]  -1
    u[2,4]    mccormick3[2,4]  -1
    u[2,5]    primal_lower  79
    u[2,5]    mccormick1[2,5]  -1
    u[2,5]    mccormick3[2,5]  -1
    u[2,6]    primal_lower  86
    u[2,6]    mccormick1[2,6]  -1
    u[2,6]    mccormick3[2,6]  -1
    u[2,7]    primal_lower  59
    u[2,7]    mccormick1[2,7]  -1
    u[2,7]    mccormick3[2,7]  -1
    u[3,0]    primal_lower  56
    u[3,0]    mccormick1[3,0]  -1
    u[3,0]    mccormick3[3,0]  -1
    u[3,2]    primal_lower  7
    u[3,2]    mccormick1[3,2]  -1
    u[3,2]    mccormick3[3,2]  -1
    u[3,4]    primal_lower  50
    u[3,4]    mccormick1[3,4]  -1
    u[3,4]    mccormick3[3,4]  -1
    u[3,5]    primal_lower  66
    u[3,5]    mccormick1[3,5]  -1
    u[3,5]    mccormick3[3,5]  -1
    u[3,7]    primal_lower  17
    u[3,7]    mccormick1[3,7]  -1
    u[3,7]    mccormick3[3,7]  -1
    u[4,0]    primal_lower  43
    u[4,0]    mccormick1[4,0]  -1
    u[4,0]    mccormick3[4,0]  -1
    u[4,1]    primal_lower  18
    u[4,1]    mccormick1[4,1]  -1
    u[4,1]    mccormick3[4,1]  -1
    u[4,2]    primal_lower  60
    u[4,2]    mccormick1[4,2]  -1
    u[4,2]    mccormick3[4,2]  -1
    u[4,3]    primal_lower  62
    u[4,3]    mccormick1[4,3]  -1
    u[4,3]    mccormick3[4,3]  -1
    u[4,5]    primal_lower  96
    u[4,5]    mccormick1[4,5]  -1
    u[4,5]    mccormick3[4,5]  -1
    u[4,6]    primal_lower  17
    u[4,6]    mccormick1[4,6]  -1
    u[4,6]    mccormick3[4,6]  -1
    u[5,0]    primal_lower  16
    u[5,0]    mccormick1[5,0]  -1
    u[5,0]    mccormick3[5,0]  -1
    u[5,1]    primal_lower  2
    u[5,1]    mccormick1[5,1]  -1
    u[5,1]    mccormick3[5,1]  -1
    u[5,2]    primal_lower  54
    u[5,2]    mccormick1[5,2]  -1
    u[5,2]    mccormick3[5,2]  -1
    u[5,3]    primal_lower  55
    u[5,3]    mccormick1[5,3]  -1
    u[5,3]    mccormick3[5,3]  -1
    u[5,4]    primal_lower  38
    u[5,4]    mccormick1[5,4]  -1
    u[5,4]    mccormick3[5,4]  -1
    u[5,6]    primal_lower  11
    u[5,6]    mccormick1[5,6]  -1
    u[5,6]    mccormick3[5,6]  -1
    u[5,7]    primal_lower  38
    u[5,7]    mccormick1[5,7]  -1
    u[5,7]    mccormick3[5,7]  -1
    u[6,1]    primal_lower  95
    u[6,1]    mccormick1[6,1]  -1
    u[6,1]    mccormick3[6,1]  -1
    u[6,2]    primal_lower  86
    u[6,2]    mccormick1[6,2]  -1
    u[6,2]    mccormick3[6,2]  -1
    u[6,4]    primal_lower  77
    u[6,4]    mccormick1[6,4]  -1
    u[6,4]    mccormick3[6,4]  -1
    u[6,5]    primal_lower  77
    u[6,5]    mccormick1[6,5]  -1
    u[6,5]    mccormick3[6,5]  -1
    u[7,0]    primal_lower  32
    u[7,0]    mccormick1[7,0]  -1
    u[7,0]    mccormick3[7,0]  -1
    u[7,1]    primal_lower  60
    u[7,1]    mccormick1[7,1]  -1
    u[7,1]    mccormick3[7,1]  -1
    u[7,2]    primal_lower  20
    u[7,2]    mccormick1[7,2]  -1
    u[7,2]    mccormick3[7,2]  -1
    u[7,3]    primal_lower  89
    u[7,3]    mccormick1[7,3]  -1
    u[7,3]    mccormick3[7,3]  -1
    u[7,5]    primal_lower  89
    u[7,5]    mccormick1[7,5]  -1
    u[7,5]    mccormick3[7,5]  -1
    r[0,1]    OBJ       6.5489999999999995e+00
    r[0,1]    mccormick1[0,1]  1
    r[0,1]    mccormick2[0,1]  1
    r[0,1]    mccormick3[0,1]  1
    r[0,2]    OBJ       2.202
    r[0,2]    mccormick1[0,2]  1
    r[0,2]    mccormick2[0,2]  1
    r[0,2]    mccormick3[0,2]  1
    r[0,3]    OBJ       2.5940000000000003e+00
    r[0,3]    mccormick1[0,3]  1
    r[0,3]    mccormick2[0,3]  1
    r[0,3]    mccormick3[0,3]  1
    r[0,4]    OBJ       6.7480000000000011e+00
    r[0,4]    mccormick1[0,4]  1
    r[0,4]    mccormick2[0,4]  1
    r[0,4]    mccormick3[0,4]  1
    r[0,5]    OBJ       5.0040000000000004e+00
    r[0,5]    mccormick1[0,5]  1
    r[0,5]    mccormick2[0,5]  1
    r[0,5]    mccormick3[0,5]  1
    r[0,7]    OBJ       0.806
    r[0,7]    mccormick1[0,7]  1
    r[0,7]    mccormick2[0,7]  1
    r[0,7]    mccormick3[0,7]  1
    r[1,0]    OBJ       6.5489999999999995e+00
    r[1,0]    mccormick1[1,0]  1
    r[1,0]    mccormick2[1,0]  1
    r[1,0]    mccormick3[1,0]  1
    r[1,2]    OBJ       5.179
    r[1,2]    mccormick1[1,2]  1
    r[1,2]    mccormick2[1,2]  1
    r[1,2]    mccormick3[1,2]  1
    r[1,4]    OBJ       3.7340000000000004e+00
    r[1,4]    mccormick1[1,4]  1
    r[1,4]    mccormick2[1,4]  1
    r[1,4]    mccormick3[1,4]  1
    r[1,5]    OBJ       1.8030000000000002e+00
    r[1,5]    mccormick1[1,5]  1
    r[1,5]    mccormick2[1,5]  1
    r[1,5]    mccormick3[1,5]  1
    r[1,6]    OBJ       0.854
    r[1,6]    mccormick1[1,6]  1
    r[1,6]    mccormick2[1,6]  1
    r[1,6]    mccormick3[1,6]  1
    r[1,7]    OBJ       7.355
    r[1,7]    mccormick1[1,7]  1
    r[1,7]    mccormick2[1,7]  1
    r[1,7]    mccormick3[1,7]  1
    r[2,0]    OBJ       2.202
    r[2,0]    mccormick1[2,0]  1
    r[2,0]    mccormick2[2,0]  1
    r[2,0]    mccormick3[2,0]  1
    r[2,1]    OBJ       5.179
    r[2,1]    mccormick1[2,1]  1
    r[2,1]    mccormick2[2,1]  1
    r[2,1]    mccormick3[2,1]  1
    r[2,3]    OBJ       2.668
    r[2,3]    mccormick1[2,3]  1
    r[2,3]    mccormick2[2,3]  1
    r[2,3]    mccormick3[2,3]  1
    r[2,4]    OBJ       4.604
    r[2,4]    mccormick1[2,4]  1
    r[2,4]    mccormick2[2,4]  1
    r[2,4]    mccormick3[2,4]  1
    r[2,5]    OBJ       4.0710000000000006e+00
    r[2,5]    mccormick1[2,5]  1
    r[2,5]    mccormick2[2,5]  1
    r[2,5]    mccormick3[2,5]  1
    r[2,6]    OBJ       5.93
    r[2,6]    mccormick1[2,6]  1
    r[2,6]    mccormick2[2,6]  1
    r[2,6]    mccormick3[2,6]  1
    r[2,7]    OBJ       2.843
    r[2,7]    mccormick1[2,7]  1
    r[2,7]    mccormick2[2,7]  1
    r[2,7]    mccormick3[2,7]  1
    r[3,0]    OBJ       2.5940000000000003e+00
    r[3,0]    mccormick1[3,0]  1
    r[3,0]    mccormick2[3,0]  1
    r[3,0]    mccormick3[3,0]  1
    r[3,2]    OBJ       2.668
    r[3,2]    mccormick1[3,2]  1
    r[3,2]    mccormick2[3,2]  1
    r[3,2]    mccormick3[3,2]  1
    r[3,4]    OBJ       6.705
    r[3,4]    mccormick1[3,4]  1
    r[3,4]    mccormick2[3,4]  1
    r[3,4]    mccormick3[3,4]  1
    r[3,5]    OBJ       6.685
    r[3,5]    mccormick1[3,5]  1
    r[3,5]    mccormick2[3,5]  1
    r[3,5]    mccormick3[3,5]  1
    r[3,7]    OBJ       2.433
    r[3,7]    mccormick1[3,7]  1
    r[3,7]    mccormick2[3,7]  1
    r[3,7]    mccormick3[3,7]  1
    r[4,0]    OBJ       6.7480000000000011e+00
    r[4,0]    mccormick1[4,0]  1
    r[4,0]    mccormick2[4,0]  1
    r[4,0]    mccormick3[4,0]  1
    r[4,1]    OBJ       3.7340000000000004e+00
    r[4,1]    mccormick1[4,1]  1
    r[4,1]    mccormick2[4,1]  1
    r[4,1]    mccormick3[4,1]  1
    r[4,2]    OBJ       4.604
    r[4,2]    mccormick1[4,2]  1
    r[4,2]    mccormick2[4,2]  1
    r[4,2]    mccormick3[4,2]  1
    r[4,3]    OBJ       6.705
    r[4,3]    mccormick1[4,3]  1
    r[4,3]    mccormick2[4,3]  1
    r[4,3]    mccormick3[4,3]  1
    r[4,5]    OBJ       4.5040000000000004e+00
    r[4,5]    mccormick1[4,5]  1
    r[4,5]    mccormick2[4,5]  1
    r[4,5]    mccormick3[4,5]  1
    r[4,6]    OBJ       3.8280000000000003e+00
    r[4,6]    mccormick1[4,6]  1
    r[4,6]    mccormick2[4,6]  1
    r[4,6]    mccormick3[4,6]  1
    r[5,0]    OBJ       5.0040000000000004e+00
    r[5,0]    mccormick1[5,0]  1
    r[5,0]    mccormick2[5,0]  1
    r[5,0]    mccormick3[5,0]  1
    r[5,1]    OBJ       1.8030000000000002e+00
    r[5,1]    mccormick1[5,1]  1
    r[5,1]    mccormick2[5,1]  1
    r[5,1]    mccormick3[5,1]  1
    r[5,2]    OBJ       4.0710000000000006e+00
    r[5,2]    mccormick1[5,2]  1
    r[5,2]    mccormick2[5,2]  1
    r[5,2]    mccormick3[5,2]  1
    r[5,3]    OBJ       6.685
    r[5,3]    mccormick1[5,3]  1
    r[5,3]    mccormick2[5,3]  1
    r[5,3]    mccormick3[5,3]  1
    r[5,4]    OBJ       4.5040000000000004e+00
    r[5,4]    mccormick1[5,4]  1
    r[5,4]    mccormick2[5,4]  1
    r[5,4]    mccormick3[5,4]  1
    r[5,6]    OBJ       2.6420000000000003e+00
    r[5,6]    mccormick1[5,6]  1
    r[5,6]    mccormick2[5,6]  1
    r[5,6]    mccormick3[5,6]  1
    r[5,7]    OBJ       5.801
    r[5,7]    mccormick1[5,7]  1
    r[5,7]    mccormick2[5,7]  1
    r[5,7]    mccormick3[5,7]  1
    r[6,1]    OBJ       0.854
    r[6,1]    mccormick1[6,1]  1
    r[6,1]    mccormick2[6,1]  1
    r[6,1]    mccormick3[6,1]  1
    r[6,2]    OBJ       5.93
    r[6,2]    mccormick1[6,2]  1
    r[6,2]    mccormick2[6,2]  1
    r[6,2]    mccormick3[6,2]  1
    r[6,4]    OBJ       3.8280000000000003e+00
    r[6,4]    mccormick1[6,4]  1
    r[6,4]    mccormick2[6,4]  1
    r[6,4]    mccormick3[6,4]  1
    r[6,5]    OBJ       2.6420000000000003e+00
    r[6,5]    mccormick1[6,5]  1
    r[6,5]    mccormick2[6,5]  1
    r[6,5]    mccormick3[6,5]  1
    r[7,0]    OBJ       0.806
    r[7,0]    mccormick1[7,0]  1
    r[7,0]    mccormick2[7,0]  1
    r[7,0]    mccormick3[7,0]  1
    r[7,1]    OBJ       7.355
    r[7,1]    mccormick1[7,1]  1
    r[7,1]    mccormick2[7,1]  1
    r[7,1]    mccormick3[7,1]  1
    r[7,2]    OBJ       2.843
    r[7,2]    mccormick1[7,2]  1
    r[7,2]    mccormick2[7,2]  1
    r[7,2]    mccormick3[7,2]  1
    r[7,3]    OBJ       2.433
    r[7,3]    mccormick1[7,3]  1
    r[7,3]    mccormick2[7,3]  1
    r[7,3]    mccormick3[7,3]  1
    r[7,5]    OBJ       5.801
    r[7,5]    mccormick1[7,5]  1
    r[7,5]    mccormick2[7,5]  1
    r[7,5]    mccormick3[7,5]  1
    MARKER    'MARKER'                 'INTEND'
RHS
    RHS1      flow_cons_source  1
    RHS1      flow_cons_target  1
    RHS1      primal_lower  211
    RHS1      mccormick3[0,1]  -1
    RHS1      mccormick3[0,2]  -1
    RHS1      mccormick3[0,3]  -1
    RHS1      mccormick3[0,4]  -1
    RHS1      mccormick3[0,5]  -1
    RHS1      mccormick3[0,7]  -1
    RHS1      mccormick3[1,0]  -1
    RHS1      mccormick3[1,2]  -1
    RHS1      mccormick3[1,4]  -1
    RHS1      mccormick3[1,5]  -1
    RHS1      mccormick3[1,6]  -1
    RHS1      mccormick3[1,7]  -1
    RHS1      mccormick3[2,0]  -1
    RHS1      mccormick3[2,1]  -1
    RHS1      mccormick3[2,3]  -1
    RHS1      mccormick3[2,4]  -1
    RHS1      mccormick3[2,5]  -1
    RHS1      mccormick3[2,6]  -1
    RHS1      mccormick3[2,7]  -1
    RHS1      mccormick3[3,0]  -1
    RHS1      mccormick3[3,2]  -1
    RHS1      mccormick3[3,4]  -1
    RHS1      mccormick3[3,5]  -1
    RHS1      mccormick3[3,7]  -1
    RHS1      mccormick3[4,0]  -1
    RHS1      mccormick3[4,1]  -1
    RHS1      mccormick3[4,2]  -1
    RHS1      mccormick3[4,3]  -1
    RHS1      mccormick3[4,5]  -1
    RHS1      mccormick3[4,6]  -1
    RHS1      mccormick3[5,0]  -1
    RHS1      mccormick3[5,1]  -1
    RHS1      mccormick3[5,2]  -1
    RHS1      mccormick3[5,3]  -1
    RHS1      mccormick3[5,4]  -1
    RHS1      mccormick3[5,6]  -1
    RHS1      mccormick3[5,7]  -1
    RHS1      mccormick3[6,1]  -1
    RHS1      mccormick3[6,2]  -1
    RHS1      mccormick3[6,4]  -1
    RHS1      mccormick3[6,5]  -1
    RHS1      mccormick3[7,0]  -1
    RHS1      mccormick3[7,1]  -1
    RHS1      mccormick3[7,2]  -1
    RHS1      mccormick3[7,3]  -1
    RHS1      mccormick3[7,5]  -1
BOUNDS
 BV BND1      y[0,1]  
 BV BND1      y[0,2]  
 BV BND1      y[0,3]  
 BV BND1      y[0,4]  
 BV BND1      y[0,5]  
 BV BND1      y[0,7]  
 BV BND1      y[1,0]  
 BV BND1      y[1,2]  
 BV BND1      y[1,4]  
 BV BND1      y[1,5]  
 BV BND1      y[1,6]  
 BV BND1      y[1,7]  
 BV BND1      y[2,0]  
 BV BND1      y[2,1]  
 BV BND1      y[2,3]  
 BV BND1      y[2,4]  
 BV BND1      y[2,5]  
 BV BND1      y[2,6]  
 BV BND1      y[2,7]  
 BV BND1      y[3,0]  
 BV BND1      y[3,2]  
 BV BND1      y[3,4]  
 BV BND1      y[3,5]  
 BV BND1      y[3,7]  
 BV BND1      y[4,0]  
 BV BND1      y[4,1]  
 BV BND1      y[4,2]  
 BV BND1      y[4,3]  
 BV BND1      y[4,5]  
 BV BND1      y[4,6]  
 BV BND1      y[5,0]  
 BV BND1      y[5,1]  
 BV BND1      y[5,2]  
 BV BND1      y[5,3]  
 BV BND1      y[5,4]  
 BV BND1      y[5,6]  
 BV BND1      y[5,7]  
 BV BND1      y[6,1]  
 BV BND1      y[6,2]  
 BV BND1      y[6,4]  
 BV BND1      y[6,5]  
 BV BND1      y[7,0]  
 BV BND1      y[7,1]  
 BV BND1      y[7,2]  
 BV BND1      y[7,3]  
 BV BND1      y[7,5]  
 BV BND1      x[0,1]  
 BV BND1      x[0,2]  
 BV BND1      x[0,3]  
 BV BND1      x[0,4]  
 BV BND1      x[0,5]  
 BV BND1      x[0,7]  
 BV BND1      x[1,0]  
 BV BND1      x[1,2]  
 BV BND1      x[1,4]  
 BV BND1      x[1,5]  
 BV BND1      x[1,6]  
 BV BND1      x[1,7]  
 BV BND1      x[2,0]  
 BV BND1      x[2,1]  
 BV BND1      x[2,3]  
 BV BND1      x[2,4]  
 BV BND1      x[2,5]  
 BV BND1      x[2,6]  
 BV BND1      x[2,7]  
 BV BND1      x[3,0]  
 BV BND1      x[3,2]  
 BV BND1      x[3,4]  
 BV BND1      x[3,5]  
 BV BND1      x[3,7]  
 BV BND1      x[4,0]  
 BV BND1      x[4,1]  
 BV BND1      x[4,2]  
 BV BND1      x[4,3]  
 BV BND1      x[4,5]  
 BV BND1      x[4,6]  
 BV BND1      x[5,0]  
 BV BND1      x[5,1]  
 BV BND1      x[5,2]  
 BV BND1      x[5,3]  
 BV BND1      x[5,4]  
 BV BND1      x[5,6]  
 BV BND1      x[5,7]  
 BV BND1      x[6,1]  
 BV BND1      x[6,2]  
 BV BND1      x[6,4]  
 BV BND1      x[6,5]  
 BV BND1      x[7,0]  
 BV BND1      x[7,1]  
 BV BND1      x[7,2]  
 BV BND1      x[7,3]  
 BV BND1      x[7,5]  
 BV BND1      u[0,1]  
 BV BND1      u[0,2]  
 BV BND1      u[0,3]  
 BV BND1      u[0,4]  
 BV BND1      u[0,5]  
 BV BND1      u[0,7]  
 BV BND1      u[1,0]  
 BV BND1      u[1,2]  
 BV BND1      u[1,4]  
 BV BND1      u[1,5]  
 BV BND1      u[1,6]  
 BV BND1      u[1,7]  
 BV BND1      u[2,0]  
 BV BND1      u[2,1]  
 BV BND1      u[2,3]  
 BV BND1      u[2,4]  
 BV BND1      u[2,5]  
 BV BND1      u[2,6]  
 BV BND1      u[2,7]  
 BV BND1      u[3,0]  
 BV BND1      u[3,2]  
 BV BND1      u[3,4]  
 BV BND1      u[3,5]  
 BV BND1      u[3,7]  
 BV BND1      u[4,0]  
 BV BND1      u[4,1]  
 BV BND1      u[4,2]  
 BV BND1      u[4,3]  
 BV BND1      u[4,5]  
 BV BND1      u[4,6]  
 BV BND1      u[5,0]  
 BV BND1      u[5,1]  
 BV BND1      u[5,2]  
 BV BND1      u[5,3]  
 BV BND1      u[5,4]  
 BV BND1      u[5,6]  
 BV BND1      u[5,7]  
 BV BND1      u[6,1]  
 BV BND1      u[6,2]  
 BV BND1      u[6,4]  
 BV BND1      u[6,5]  
 BV BND1      u[7,0]  
 BV BND1      u[7,1]  
 BV BND1      u[7,2]  
 BV BND1      u[7,3]  
 BV BND1      u[7,5]  
 BV BND1      r[0,1]  
 BV BND1      r[0,2]  
 BV BND1      r[0,3]  
 BV BND1      r[0,4]  
 BV BND1      r[0,5]  
 BV BND1      r[0,7]  
 BV BND1      r[1,0]  
 BV BND1      r[1,2]  
 BV BND1      r[1,4]  
 BV BND1      r[1,5]  
 BV BND1      r[1,6]  
 BV BND1      r[1,7]  
 BV BND1      r[2,0]  
 BV BND1      r[2,1]  
 BV BND1      r[2,3]  
 BV BND1      r[2,4]  
 BV BND1      r[2,5]  
 BV BND1      r[2,6]  
 BV BND1      r[2,7]  
 BV BND1      r[3,0]  
 BV BND1      r[3,2]  
 BV BND1      r[3,4]  
 BV BND1      r[3,5]  
 BV BND1      r[3,7]  
 BV BND1      r[4,0]  
 BV BND1      r[4,1]  
 BV BND1      r[4,2]  
 BV BND1      r[4,3]  
 BV BND1      r[4,5]  
 BV BND1      r[4,6]  
 BV BND1      r[5,0]  
 BV BND1      r[5,1]  
 BV BND1      r[5,2]  
 BV BND1      r[5,3]  
 BV BND1      r[5,4]  
 BV BND1      r[5,6]  
 BV BND1      r[5,7]  
 BV BND1      r[6,1]  
 BV BND1      r[6,2]  
 BV BND1      r[6,4]  
 BV BND1      r[6,5]  
 BV BND1      r[7,0]  
 BV BND1      r[7,1]  
 BV BND1      r[7,2]  
 BV BND1      r[7,3]  
 BV BND1      r[7,5]  
ENDATA
