instances/shortest_path/discrete_knapsack_uncertainty/nohadani_8_20.kp
91162
236

[1.527261926568129 1.6437042685948644 4.587982258111774 3.2648259160068664 4.626231089326574 3.006442271544028 2.5010186063928384 1.2885016541658845 2.2585673478082176 1.0147824091202668 1.1549668647960434 1.090708900357074 2.181126829980565 1.9431701718530776 2.751752998369637 2.683873109771718 4.665100073972417 3.2173247849320146 4.3453844681513925 5.007241819586839 2.4954627642242184 1.5167009285257744 2.4661641242751178 0.17177215923030187 1.2969590115984504 3.8572381678126777 1.4359274285881634 0.4653072442443917 3.9302046161278232 2.1860203410704164 1.5763285698410667 3.7262154313130678 1.5701973013820218 2.7918881900463486 2.7252542130932693 3.9463162335995476 2.9497271456608445 4.5554526188834314 4.192024752865577 0.39468512079812035 0.9191758890101623 3.871603912094055 4.304301488836839 2.821694988556235 0.2548618892959155 4.742719765565861]

[60 48 78 27 68 30 5 76 49 90 68 31 28 56 89 97 53 4 37 74 9 92 32 75 9 52 46 52 74 3 90 68 92 21 72 85 56 21 100 87 91 50 90 98 7 63]
